unsat
(:binary-propagations  31
 :conflicts            1
 :final-checks         1
 :max-generation       1
 :max-memory           31.07
 :memory               22.99
 :mk-bool-var          5892
 :mk-clause            2029
 :mk-clause-binary     7140
 :num-allocs           157277802
 :num-checks           1
 :propagations         31
 :quant-instantiations 982
 :restarts             1
 :rlimit-count         751492
 :time                 0.15)
